<number of tasks>
30

<cycle time>
27

<task times>
1 8
2 7
3 19
4 10
5 2
6 6
7 14
8 10
9 1
10 4
11 14
12 15
13 5
14 12
15 9
16 10
17 2
18 10
19 18
20 16
21 21
22 14
23 16
24 7
25 17
26 9
27 25
28 7
29 14
30 2

<precedence relations>
1,4
1,5
2,11
2,12
3,16
3,17
4,7
5,6
6,7
7,8
8,9
9,26
10,24
12,13
13,14
14,15
14,20
15,22
16,20
17,18
18,19
20,21
20,24
21,22
22,23
23,27
24,25
25,26
26,27
27,28
27,29
29,30

<setup times forward>
1,3:1
1,11:1
1,12:3
1,13:3
1,14:1
1,15:2
1,16:1
1,19:1
1,20:2
1,22:2
1,23:1
1,24:3
1,25:3
2,3:1
2,6:3
2,7:1
2,8:2
2,9:1
2,11:1
2,12:3
2,16:1
2,19:1
3,1:1
3,2:1
3,4:1
3,5:1
3,6:4
3,7:2
3,8:3
3,10:1
3,11:2
3,12:4
3,13:4
3,14:2
3,15:1
3,16:2
3,17:1
4,3:1
4,6:3
4,7:1
4,11:1
4,12:3
4,13:3
4,14:1
4,15:2
4,16:1
4,19:1
4,20:2
4,22:2
4,23:1
4,24:3
4,25:3
5,3:1
5,6:3
5,11:1
5,12:3
5,13:3
5,14:1
5,15:2
5,16:1
5,19:1
5,20:2
5,22:2
5,23:1
5,24:3
5,25:3
6,2:3
6,3:4
6,4:3
6,7:2
6,10:3
6,11:2
6,14:2
6,15:5
6,16:2
6,17:3
6,18:3
6,19:2
6,20:5
6,21:3
6,22:1
6,23:4
6,24:6
6,25:6
7,2:1
7,3:2
7,8:1
7,10:1
7,12:2
7,13:2
7,15:3
7,17:1
7,18:1
7,20:3
7,21:1
7,22:1
7,23:2
7,24:4
7,25:4
8,2:2
8,3:3
8,9:3
8,10:2
8,11:1
8,12:1
8,13:1
8,14:1
8,15:4
8,16:1
8,17:2
8,18:2
8,19:1
8,20:4
8,21:2
8,23:3
8,24:5
8,25:5
9,2:1
9,10:1
9,11:2
9,12:4
9,13:4
9,14:2
9,15:1
9,16:2
9,17:1
9,18:1
9,19:2
9,20:1
9,21:1
9,22:3
9,24:2
9,25:2
10,3:1
10,6:3
10,7:1
10,8:2
10,9:1
10,11:1
10,12:3
10,13:3
10,14:1
10,15:2
10,16:1
10,19:1
10,20:2
10,22:2
10,23:1
10,24:3
11,1:1
11,3:2
11,4:1
11,5:1
11,6:2
11,8:1
11,9:2
11,10:1
11,12:2
11,13:2
11,15:3
11,17:1
11,18:1
11,20:3
11,21:1
11,22:1
11,23:2
11,24:4
11,25:4
11,26:2
11,27:4
11,29:1
12,1:3
12,3:4
12,4:3
12,5:3
12,7:2
12,8:1
12,9:4
12,10:3
12,11:2
12,16:2
12,17:3
12,18:3
12,19:2
13,1:3
13,3:4
13,4:3
13,5:3
13,7:2
13,8:1
13,9:4
13,10:3
13,11:2
13,14:2
13,16:2
13,17:3
13,18:3
13,19:2
14,1:1
14,3:2
14,4:1
14,5:1
14,6:2
14,8:1
14,9:2
14,10:1
14,15:3
14,17:1
14,18:1
14,20:3
15,1:2
15,3:1
15,4:2
15,5:2
15,6:5
15,7:3
15,8:4
15,9:1
15,10:2
15,11:3
15,16:3
15,17:2
15,18:2
15,19:3
15,21:2
15,22:4
15,24:1
15,25:1
15,26:1
16,1:1
16,2:1
16,4:1
16,5:1
16,6:2
16,8:1
16,9:2
16,10:1
16,12:2
16,13:2
16,15:3
16,17:1
16,18:1
16,20:3
17,6:3
17,7:1
17,8:2
17,9:1
17,11:1
17,12:3
17,13:3
17,14:1
17,15:2
17,16:1
17,20:2
17,22:2
17,23:1
17,24:3
17,25:3
17,26:1
17,27:3
17,28:1
17,30:1
18,6:3
18,7:1
18,8:2
18,9:1
18,11:1
18,12:3
18,13:3
18,14:1
18,15:2
18,16:1
18,19:1
18,20:2
18,22:2
18,23:1
18,24:3
18,25:3
18,26:1
18,27:3
18,28:1
18,30:1
19,1:1
19,2:1
19,4:1
19,5:1
19,6:2
19,8:1
19,9:2
19,10:1
19,12:2
19,13:2
19,15:3
19,20:3
19,21:1
19,22:1
19,23:2
19,24:4
19,25:4
19,26:2
19,27:4
19,29:1
20,1:2
20,4:2
20,5:2
20,6:5
20,7:3
20,8:4
20,9:1
20,10:2
20,11:3
20,17:2
20,18:2
20,19:3
20,21:2
20,24:1
21,6:3
21,7:1
21,8:2
21,9:1
21,11:1
21,15:2
21,19:1
21,22:2
21,24:3
21,25:3
21,26:1
22,1:2
22,4:2
22,5:2
22,6:1
22,7:1
22,9:3
22,10:2
22,11:1
22,17:2
22,18:2
22,19:1
22,23:3
22,24:5
22,25:5
22,26:3
23,1:1
23,4:1
23,5:1
23,6:4
23,7:2
23,8:3
23,10:1
23,11:2
23,17:1
23,18:1
23,19:2
23,24:2
23,25:2
23,27:2
24,1:3
24,4:3
24,5:3
24,6:6
24,7:4
24,8:5
24,9:2
24,11:4
24,15:1
24,17:3
24,18:3
24,19:4
24,21:3
24,22:5
24,23:2
25,1:3
25,4:3
25,5:3
25,6:6
25,7:4
25,8:5
25,9:2
25,11:4
25,15:1
25,17:3
25,18:3
25,19:4
25,21:3
25,22:5
25,23:2
25,26:2
26,11:2
26,15:1
26,17:1
26,18:1
26,19:2
26,21:1
26,22:3
26,27:2
27,11:4
27,17:3
27,18:3
27,19:4
27,28:4
27,29:3
28,17:1
28,18:1
28,29:1
29,11:1
29,19:1
29,28:1
29,30:1
30,17:1
30,18:1

<setup times backward>
1,3:1
1,15:2
1,20:2
1,23:1
1,24:3
1,25:3
2,3:1
2,9:1
3,15:1
4,3:1
4,15:2
4,20:2
4,23:1
4,24:3
4,25:3
5,3:1
5,15:2
5,20:2
5,23:1
5,24:3
5,25:3
6,1:3
6,2:3
6,3:4
6,4:3
6,5:3
6,10:3
6,11:2
6,14:2
6,15:5
6,16:2
6,17:3
6,18:3
6,19:2
6,20:5
6,21:3
6,22:1
6,23:4
6,24:6
6,25:6
7,1:1
7,2:1
7,3:2
7,4:1
7,5:1
7,10:1
7,15:3
7,17:1
7,18:1
7,20:3
7,21:1
7,23:2
7,24:4
7,25:4
8,1:2
8,2:2
8,3:3
8,4:2
8,5:2
8,7:1
8,10:2
8,11:1
8,14:1
8,15:4
8,16:1
8,17:2
8,18:2
8,19:1
8,20:4
8,21:2
8,23:3
8,24:5
8,25:5
9,15:1
9,20:1
9,24:2
9,25:2
10,3:1
10,9:1
10,15:2
10,20:2
10,23:1
11,1:1
11,2:1
11,3:2
11,4:1
11,5:1
11,9:2
11,10:1
11,15:3
11,17:1
11,18:1
11,20:3
11,21:1
11,23:2
11,24:4
11,25:4
11,26:2
11,27:4
11,29:1
12,1:3
12,2:3
12,3:4
12,4:3
12,5:3
12,7:2
12,8:1
12,9:4
12,10:3
12,11:2
12,16:2
12,17:3
12,18:3
12,19:2
13,1:3
13,2:3
13,3:4
13,4:3
13,5:3
13,7:2
13,8:1
13,9:4
13,10:3
13,11:2
13,16:2
13,17:3
13,18:3
13,19:2
14,1:1
14,2:1
14,3:2
14,4:1
14,5:1
14,9:2
14,10:1
14,17:1
14,18:1
15,24:1
15,25:1
16,1:1
16,2:1
16,3:2
16,4:1
16,5:1
16,9:2
16,10:1
16,15:3
16,17:1
16,18:1
17,3:1
17,9:1
17,15:2
17,20:2
17,23:1
17,24:3
17,25:3
17,26:1
17,27:3
18,3:1
18,9:1
18,15:2
18,20:2
18,23:1
18,24:3
18,25:3
18,26:1
18,27:3
19,1:1
19,2:1
19,3:2
19,4:1
19,5:1
19,9:2
19,10:1
19,15:3
19,17:1
19,18:1
19,20:3
19,21:1
19,23:2
19,24:4
19,25:4
19,26:2
19,27:4
19,29:1
21,3:1
21,9:1
21,15:2
21,20:2
21,24:3
21,25:3
21,26:1
22,1:2
22,2:2
22,3:3
22,4:2
22,5:2
22,7:1
22,9:3
22,10:2
22,11:1
22,14:1
22,15:4
22,16:1
22,17:2
22,18:2
22,19:1
22,20:4
22,21:2
22,24:5
22,25:5
22,26:3
23,15:1
23,20:1
23,24:2
23,25:2
26,15:1
26,20:1
26,24:2
26,25:2
28,1:1
28,2:1
28,3:2
28,4:1
28,5:1
28,9:2
28,10:1
28,15:3
28,17:1
28,18:1
28,20:3
28,21:1
28,23:2
28,24:4
28,25:4
28,26:2
28,27:4
28,29:1
29,3:1
29,9:1
29,15:2
29,20:2
29,23:1
29,24:3
29,25:3
29,26:1
29,27:3
30,1:1
30,2:1
30,3:2
30,4:1
30,5:1
30,9:2
30,10:1
30,15:3
30,17:1
30,18:1
30,20:3
30,21:1
30,23:2
30,24:4
30,25:4
30,26:2
30,27:4
30,29:1

<end>

<optimal SALBP-1 value>
13


<rand seed>
467321153

<Lower Bounds>
Lm1=12
Lms1=12
Lm2=12
Lm3=11
Lm4=12
Best=12

<Optimal Stations (Iterations: 10)>
16
